# Solution for model GasLib-40
# Objective value = 2.6241207434485812e+01
loadshed[innode_1] 0
loadshed[innode_2] 0
loadshed[innode_3] 0
loadshed[innode_4] 0
loadshed[innode_5] 0
loadshed[innode_6] 0
loadshed[innode_7] 0
loadshed[innode_8] 0
loadshed[source_1] -1.7088436239478910e-01
loadshed[source_2] -4.5420837921870127e-03
loadshed[source_3] 0.341415195168456
loadshed[sink_1] 0
loadshed[sink_2] 0
loadshed[sink_3] 0
loadshed[sink_4] 0
loadshed[sink_5] 0
loadshed[sink_6] 0
loadshed[sink_7] 0
loadshed[sink_8] 0
loadshed[sink_9] 0
loadshed[sink_10] 0
loadshed[sink_11] 0
loadshed[sink_12] 1
loadshed[sink_13] 0
loadshed[sink_14] 0
loadshed[sink_15] 0
loadshed[sink_16] 0
loadshed[sink_17] 0
loadshed[sink_18] 0
loadshed[sink_19] 0
loadshed[sink_20] 0
loadshed[sink_21] 6.0455790682206223e-01
loadshed[sink_22] 0
loadshed[sink_23] 0
loadshed[sink_24] 0
loadshed[sink_25] 0
loadshed[sink_26] 0
loadshed[sink_27] 0
loadshed[sink_28] 0
loadshed[sink_29] 0
flow[source_1,sink_3] 1.8510543409664842e+02
flow[innode_1,sink_16] 1.6354166666666970e+01
flow[innode_6,sink_13] 1.0363311930637870e+01
flow[sink_13,sink_14] -5.9908547360287976e+00
flow[sink_14,sink_10] -2.2345021402695465e+01
flow[sink_25,sink_26] 1.4352188377557309e+02
flow[sink_26,sink_9] 8.1770833333333655e+01
flow[sink_9,sink_18] 6.5416666666666671e+01
flow[sink_26,sink_4] 4.5396883775572839e+01
flow[sink_4,sink_20] 2.9042717108906345e+01
flow[sink_18,sink_6] 4.9062500000000313e+01
flow[sink_25,innode_8] -1.5239710076331207e+02
flow[sink_6,sink_7] 0
flow[sink_6,sink_22] 3.2708333333333641e+01
flow[sink_7,sink_24] 2.2821292565514192e+01
flow[sink_22,sink_1] 1.6354166666666970e+01
flow[sink_24,sink_21] 6.4671258988475238e+00
flow[sink_21,sink_12] 0
flow[sink_7,sink_5] -3.9175459232180856e+01
flow[sink_5,sink_17] -5.5529625898847527e+01
flow[sink_17,sink_4] 0
flow[sink_17,sink_8] -71.8837925655142
flow[sink_3,sink_23] 16.3541666666697
flow[sink_8,sink_20] -8.8237959232180870e+01
flow[sink_25,sink_20] 7.5549408789941140e+01
flow[sink_25,sink_15] -9.3391670399506680e+01
flow[sink_15,sink_29] -6.1364298903970820e+01
flow[sink_29,sink_28] 1.6354166666667879e+01
flow[sink_29,sink_2] 64.7357048288692
flow[sink_2,sink_15] 4.8381538162202531e+01
flow[sink_29,innode_7] -1.5880833706617457e+02
flow[innode_4,sink_19] 8.7761688069362648e+01
flow[sink_19,innode_3] 3.4846569033531559e+01
flow[innode_4,innode_5] 1.6354166666679703e+01
flow[sink_27,innode_5] -1.6354166666679703e+01
flow[sink_27,sink_19] 0
flow[sink_10,sink_11] 3.2708333333333641e+01
flow[sink_10,innode_2] -3.6560952369164212e+01
flow[sink_10,innode_3] -3.4846569033531559e+01
flow[innode_6,sink_25] -1.0363311930637870e+01
flow[sink_11,innode_1] 1.6354166666666970e+01
flow[sink_19,innode_2] 3.6560952369164212e+01
flow[source_3,innode_4] 1.0411585473604235e+02
flow[source_2,innode_7] 1.5880833706617457e+02
flow[sink_3,innode_8] 1.5239710076331207e+02
pressure[innode_1] 7.5373701756261767e+01
pressure[innode_2] 77.4578003982544
pressure[innode_3] 7.7380636617075538e+01
pressure[innode_4] 81.01325
pressure[innode_5] 8.1002000741808786e+01
pressure[innode_6] 7.4514924989135409e+01
pressure[innode_7] 81.01325
pressure[innode_8] 8.0394513246653787e+01
pressure[source_1] 81.01325
pressure[source_2] 81.01325
pressure[source_3] 81.01325
pressure[sink_1] 5.3734405166992985e+01
pressure[sink_2] 7.5125920652436150e+01
pressure[sink_3] 8.0394513246653787e+01
pressure[sink_4] 5.8634885704943393e+01
pressure[sink_5] 4.3506314099626152e+01
pressure[sink_6] 5.5835482777380363e+01
pressure[sink_7] 2.7213546957505848e+01
pressure[sink_8] 5.0355232092423492e+01
pressure[sink_9] 5.9512567580838649e+01
pressure[sink_10] 7.5525403063865312e+01
pressure[sink_11] 7.5373701756261767e+01
pressure[sink_12] 1.01325
pressure[sink_13] 74.4577937823321
pressure[sink_14] 7.4468514927190213e+01
pressure[sink_15] 7.4967965593455816e+01
pressure[sink_16] 7.4352051921444087e+01
pressure[sink_17] 4.7642869849425786e+01
pressure[sink_18] 5.7145597605639992e+01
pressure[sink_19] 77.4578003982544
pressure[sink_20] 5.6504176936569657e+01
pressure[sink_21] 1.01325
pressure[sink_22] 54.798174309348
pressure[sink_23] 80.229795234994
pressure[sink_24] 1.0848674106531675e+00
pressure[sink_25] 7.4514924989135409e+01
pressure[sink_26] 64.40676300055
pressure[sink_27] 8.0866291377726043e+01
pressure[sink_28] 7.6470466840808342e+01
pressure[sink_29] 7.6765749114425532e+01
interdiction[source_1,sink_3] 0
interdiction[innode_1,sink_16] 0
interdiction[innode_6,sink_13] 0
interdiction[sink_13,sink_14] 0
interdiction[sink_14,sink_10] 0
interdiction[sink_25,sink_26] 0
interdiction[sink_26,sink_9] 0
interdiction[sink_9,sink_18] 0
interdiction[sink_26,sink_4] 0
interdiction[sink_4,sink_20] 0
interdiction[sink_18,sink_6] 0
interdiction[sink_25,innode_8] 0
interdiction[sink_6,sink_7] 1
interdiction[sink_6,sink_22] 0
interdiction[sink_7,sink_24] 0
interdiction[sink_22,sink_1] 0
interdiction[sink_24,sink_21] 0
interdiction[sink_21,sink_12] 0
interdiction[sink_7,sink_5] 0
interdiction[sink_5,sink_17] 0
interdiction[sink_17,sink_4] 1
interdiction[sink_17,sink_8] 0
interdiction[sink_3,sink_23] 0
interdiction[sink_8,sink_20] 0
interdiction[sink_25,sink_20] 0
interdiction[sink_25,sink_15] 0
interdiction[sink_15,sink_29] 0
interdiction[sink_29,sink_28] 0
interdiction[sink_29,sink_2] 0
interdiction[sink_2,sink_15] 0
interdiction[sink_29,innode_7] 0
interdiction[innode_4,sink_19] 0
interdiction[sink_19,innode_3] 0
interdiction[innode_4,innode_5] 0
interdiction[sink_27,innode_5] 0
interdiction[sink_27,sink_19] 1
interdiction[sink_10,sink_11] 0
interdiction[sink_10,innode_2] 0
interdiction[sink_10,innode_3] 0
interdiction[innode_6,sink_25] 0
interdiction[sink_11,innode_1] 0
interdiction[sink_19,innode_2] 0
interdiction[source_3,innode_4] 0
interdiction[source_2,innode_7] 0
interdiction[sink_3,innode_8] 0
WCcheckFlow[source_1,sink_3] 39
WCcheckFlow[innode_1,sink_16] 1
WCcheckFlow[innode_6,sink_13] 13
WCcheckFlow[sink_13,sink_14] 12
WCcheckFlow[sink_14,sink_10] 11
WCcheckFlow[sink_25,sink_26] 15
WCcheckFlow[sink_26,sink_9] 5
WCcheckFlow[sink_9,sink_18] 4
WCcheckFlow[sink_26,sink_4] 9
WCcheckFlow[sink_4,sink_20] 8
WCcheckFlow[sink_18,sink_6] 3
WCcheckFlow[sink_25,innode_8] -36
WCcheckFlow[sink_6,sink_7] 0
WCcheckFlow[sink_6,sink_22] 2
WCcheckFlow[sink_7,sink_24] 3
WCcheckFlow[sink_22,sink_1] 1
WCcheckFlow[sink_24,sink_21] 2
WCcheckFlow[sink_21,sink_12] 1
WCcheckFlow[sink_7,sink_5] -4
WCcheckFlow[sink_5,sink_17] -5
WCcheckFlow[sink_17,sink_4] 0
WCcheckFlow[sink_17,sink_8] -6
WCcheckFlow[sink_3,sink_23] 1
WCcheckFlow[sink_8,sink_20] -7
WCcheckFlow[sink_25,sink_20] 0
WCcheckFlow[sink_25,sink_15] 6
WCcheckFlow[sink_15,sink_29] 5
WCcheckFlow[sink_29,sink_28] 1
WCcheckFlow[sink_29,sink_2] 1
WCcheckFlow[sink_2,sink_15] 0
WCcheckFlow[sink_29,innode_7] 2
WCcheckFlow[innode_4,sink_19] -4
WCcheckFlow[sink_19,innode_3] -5
WCcheckFlow[innode_4,innode_5] 2
WCcheckFlow[sink_27,innode_5] -1
WCcheckFlow[sink_27,sink_19] 0
WCcheckFlow[sink_10,sink_11] 3
WCcheckFlow[sink_10,innode_2] 1
WCcheckFlow[sink_10,innode_3] 6
WCcheckFlow[innode_6,sink_25] -14
WCcheckFlow[sink_11,innode_1] 2
WCcheckFlow[sink_19,innode_2] 0
WCcheckFlow[source_3,innode_4] -1
WCcheckFlow[source_2,innode_7] -1
WCcheckFlow[sink_3,innode_8] 37
